# Objective value = 38.0
xobj 38.0
x0_r1 -0.0
x1_r1 0.0
x2_r1 0.0
x3_r1 -0.0
y0_r1 -0.0
y1_r1 -0.0
y2_r1 -0.0
y3_r1 0.0
SH0_r1 -0.0
SL0_r1 -0.0
x4_r1 -0.0
x5_r1 -0.0
x6_r1 0.0
x7_r1 -0.0
y4_r1 -0.0
y5_r1 -0.0
y6_r1 -0.0
y7_r1 0.0
SH1_r1 -0.0
SL1_r1 0.0
x8_r1 0.0
x9_r1 -0.0
x10_r1 -0.0
x11_r1 -0.0
y8_r1 -0.0
y9_r1 -0.0
y10_r1 -0.0
y11_r1 -0.0
SH2_r1 -0.0
SL2_r1 -0.0
x12_r1 1.0
x13_r1 1.0
x14_r1 1.0
x15_r1 1.0
y12_r1 0.0
y13_r1 -1.5228778888905464e-17
y14_r1 -0.0
y15_r1 0.9999999999999992
SH3_r1 1.0
SL3_r1 -0.0
x16_r1 -0.0
x17_r1 -0.0
x18_r1 -0.0
x19_r1 -0.0
y16_r1 -0.0
y17_r1 -1.4529680245889127e-16
y18_r1 -0.0
y19_r1 -5.1306559090426285e-17
SH4_r1 -5.1306559090426285e-17
SL4_r1 -0.0
x20_r1 -0.0
x21_r1 -0.0
x22_r1 -0.0
x23_r1 -5.691995231099894e-18
y20_r1 -0.0
y21_r1 -0.0
y22_r1 -0.0
y23_r1 -5.6919886136549936e-18
SH5_r1 -5.6919886136549936e-18
SL5_r1 -0.0
x24_r1 -0.0
x25_r1 -0.0
x26_r1 0.0
x27_r1 -0.0
y24_r1 -0.0
y25_r1 -0.0
y26_r1 -0.0
y27_r1 -0.0
SH6_r1 -0.0
SL6_r1 -0.0
x28_r1 -0.0
x29_r1 -0.0
x30_r1 0.0
x31_r1 -0.0
y28_r1 -0.0
y29_r1 0.0
y30_r1 -0.0
y31_r1 -0.0
SH7_r1 0.0
SL7_r1 -0.0
x32_r1 -0.0
x33_r1 -0.0
x34_r1 -0.0
x35_r1 -0.0
y32_r1 2.1693475955671153e-16
y33_r1 5.203814144696982e-16
y34_r1 -0.0
y35_r1 0.0
SH8_r1 2.205329158119784e-16
SL8_r1 -0.0
x36_r1 -0.0
x37_r1 -0.0
x38_r1 0.0
x39_r1 -0.0
y36_r1 -0.0
y37_r1 -0.0
y38_r1 -0.0
y39_r1 0.0
SH9_r1 0.0
SL9_r1 -0.0
x40_r1 -0.0
x41_r1 -0.0
x42_r1 -0.0
x43_r1 -0.0
y40_r1 -0.0
y41_r1 -0.0
y42_r1 -0.0
y43_r1 -0.0
SH10_r1 -0.0
SL10_r1 -0.0
x44_r1 -0.0
x45_r1 0.0
x46_r1 -0.0
x47_r1 -0.0
y44_r1 -0.0
y45_r1 0.0
y46_r1 -0.0
y47_r1 -0.0
SH11_r1 0.0
SL11_r1 -0.0
x48_r1 0.0
x49_r1 0.0
x50_r1 0.0
x51_r1 0.0
y48_r1 -0.0
y49_r1 -0.0
y50_r1 -0.0
y51_r1 -0.0
SH12_r1 0.0
SL12_r1 -0.0
x52_r1 -0.0
x53_r1 2.1865822179582904e-17
x54_r1 3.475813099383945e-17
x55_r1 -0.0
y52_r1 -0.0
y53_r1 1.2641210694690559e-17
y54_r1 -0.0
y55_r1 2.0108974103762141e-16
SH13_r1 9.103778595371824e-17
SL13_r1 -0.0
x56_r1 -0.0
x57_r1 -1.6614462156497517e-15
x58_r1 -0.0
x59_r1 -0.0
y56_r1 3.3228924312995034e-15
y57_r1 -0.0
y58_r1 0.0
y59_r1 0.0
SH14_r1 -0.0
SL14_r1 -0.0
x60_r1 1.0
x61_r1 1.0
x62_r1 -0.0
x63_r1 1.0
y60_r1 0.0
y61_r1 0.0
y62_r1 0.0
y63_r1 1.0
SH15_r1 1.0
SL15_r1 1.0
y0_r2 -0.0
y1_r2 0.0
y2_r2 -0.0
y3_r2 -0.0
SH0_r2 -0.0
SL0_r2 -0.0
y4_r2 -0.0
y5_r2 -0.0
y6_r2 -0.0
y7_r2 -0.0
SH1_r2 0.0
SL1_r2 0.0
y8_r2 -0.0
y9_r2 -0.0
y10_r2 -0.0
y11_r2 -3.26862073411554e-17
SH2_r2 -3.26862073411554e-17
SL2_r2 3.2685988965473685e-17
y12_r2 -0.0
y13_r2 -0.0
y14_r2 2.406299750407612e-15
y15_r2 -0.0
SH3_r2 1.6634520827266688e-16
SL3_r2 -0.0
y16_r2 -0.0
y17_r2 0.0
y18_r2 -0.0
y19_r2 -0.0
SH4_r2 -0.0
SL4_r2 -0.0
y20_r2 -0.0
y21_r2 -0.0
y22_r2 -9.028683003461197e-18
y23_r2 -0.0
SH5_r2 -3.67825645531956e-17
SL5_r2 -5.4257125570292736e-17
y24_r2 -0.0
y25_r2 -0.0
y26_r2 6.314037169322139e-16
y27_r2 7.79717650749225e-16
SH6_r2 7.79717650749225e-16
SL6_r2 -0.0
y28_r2 -0.0
y29_r2 -0.0
y30_r2 -0.0
y31_r2 -0.0
SH7_r2 -0.0
SL7_r2 -0.0
y32_r2 -0.0
y33_r2 -0.0
y34_r2 -0.0
y35_r2 0.0
SH8_r2 0.0
SL8_r2 -0.0
y36_r2 -0.0
y37_r2 -0.0
y38_r2 0.0
y39_r2 -1.1102230246251565e-16
SH9_r2 -0.0
SL9_r2 -0.0
y40_r2 -0.0
y41_r2 -0.0
y42_r2 -1.1097532522116754e-15
y43_r2 -0.0
SH10_r2 -1.1097532522116754e-15
SL10_r2 -0.0
y44_r2 -0.0
y45_r2 -0.0
y46_r2 0.0
y47_r2 -0.0
SH11_r2 0.0
SL11_r2 -0.0
y48_r2 0.9999999999999997
y49_r2 -0.0
y50_r2 0.0
y51_r2 0.9999999999999997
SH12_r2 0.9999999999999997
SL12_r2 -0.0
y52_r2 -2.3727341028371637e-16
y53_r2 -0.0
y54_r2 -8.91766874781168e-18
y55_r2 -0.0
SH13_r2 4.960119060002776e-18
SL13_r2 -9.299010590727202e-18
y56_r2 -0.0
y57_r2 -0.0
y58_r2 0.0
y59_r2 -0.0
SH14_r2 0.0
SL14_r2 0.0
y60_r2 0.9999999999999998
y61_r2 -0.0
y62_r2 4.0570863823253297e-16
y63_r2 0.9999999999999999
SH15_r2 1.0
SL15_r2 -1.4866767595160817e-16
y0_r3 -0.0
y1_r3 -0.0
y2_r3 -0.0
y3_r3 -0.0
SH0_r3 -0.0
SL0_r3 -0.0
y4_r3 -0.0
y5_r3 -0.0
y6_r3 -0.0
y7_r3 -0.0
SH1_r3 -0.0
SL1_r3 -0.0
y8_r3 -0.0
y9_r3 -0.0
y10_r3 -0.0
y11_r3 -0.0
SH2_r3 -0.0
SL2_r3 -0.0
y12_r3 0.0
y13_r3 1.0
y14_r3 -0.0
y15_r3 -0.0
SH3_r3 1.0
SL3_r3 -0.0
y16_r3 -0.0
y17_r3 -0.0
y18_r3 -0.0
y19_r3 -0.0
SH4_r3 -0.0
SL4_r3 -0.0
y20_r3 -0.0
y21_r3 -0.0
y22_r3 -0.0
y23_r3 -0.0
SH5_r3 -0.0
SL5_r3 -0.0
y24_r3 -0.0
y25_r3 -0.0
y26_r3 -0.0
y27_r3 -0.0
SH6_r3 0.0
SL6_r3 -0.0
y28_r3 -0.0
y29_r3 -0.0
y30_r3 -0.0
y31_r3 -0.0
SH7_r3 0.0
SL7_r3 -0.0
y32_r3 -2.8955243995995144e-15
y33_r3 3.174063216900431e-15
y34_r3 -2.1450634389020204e-15
y35_r3 2.922217345913033e-16
SH8_r3 1.5328169602587386e-15
SL8_r3 -0.0
y36_r3 -2.4450926864497504e-16
y37_r3 5.946211523790183e-16
y38_r3 -0.0
y39_r3 6.214966078228908e-16
SH9_r3 5.946211523790183e-16
SL9_r3 -0.0
y40_r3 -3.857701179288772e-16
y41_r3 -1.9230486521837104e-15
y42_r3 -0.0
y43_r3 -1.361468878648543e-15
SH10_r3 -1.460506088423884e-15
SL10_r3 -0.0
y44_r3 -4.9618263607870854e-18
y45_r3 0.0
y46_r3 -0.0
y47_r3 -1.669400526695127e-16
SH11_r3 -0.0
SL11_r3 3.0856412357783177e-16
y48_r3 -6.117216027661148e-17
y49_r3 -4.1268570155862585e-17
y50_r3 -0.0
y51_r3 -0.0
SH12_r3 -4.1268573464585035e-17
SL12_r3 -2.4652364534244377e-17
y52_r3 3.057639087548254e-16
y53_r3 6.686953482867093e-16
y54_r3 -0.0
y55_r3 6.853475263388062e-17
SH13_r3 5.295635163157309e-16
SL13_r3 -0.0
y56_r3 0.0
y57_r3 0.0
y58_r3 -0.0
y59_r3 -0.0
SH14_r3 -0.0
SL14_r3 0.0
y60_r3 1.0100223853182598e-16
y61_r3 1.0000000000000002
y62_r3 -0.0
y63_r3 -0.0
SH15_r3 0.9999999999999999
SL15_r3 -0.0
y0_r4 0.0
y1_r4 0.0
y2_r4 -0.0
y3_r4 0.0
SH0_r4 -0.0
SL0_r4 -0.0
y4_r4 -0.0
y5_r4 -0.0
y6_r4 -0.0
y7_r4 -0.0
SH1_r4 0.0
SL1_r4 -0.0
y8_r4 -1.4293001343598241e-16
y9_r4 7.713346715493676e-16
y10_r4 0.0
y11_r4 -0.0
SH2_r4 8.915961447027371e-18
SL2_r4 -0.0
y12_r4 -5.834047836573026e-16
y13_r4 -0.0
y14_r4 -0.0
y15_r4 -0.0
SH3_r4 2.4206382496924777e-16
SL3_r4 -0.0
y16_r4 0.9999999999999974
y17_r4 -1.1102230246251565e-16
y18_r4 2.6520035125248667e-15
y19_r4 1.0
SH4_r4 1.0
SL4_r4 -0.0
y20_r4 -0.0
y21_r4 -0.0
y22_r4 -0.0
y23_r4 -0.0
SH5_r4 -0.0
SL5_r4 -0.0
y24_r4 3.487478700176966e-15
y25_r4 2.242680771649218e-15
y26_r4 1.0237423371390318e-15
y27_r4 3.487478700176966e-15
SH6_r4 3.709523305101997e-15
SL6_r4 -0.0
y28_r4 0.9999999999999979
y29_r4 -2.4647253765742494e-15
y30_r4 3.224663959317778e-15
y31_r4 1.0
SH7_r4 1.0
SL7_r4 -0.0
y32_r4 0.0
y33_r4 0.0
y34_r4 -0.0
y35_r4 0.0
SH8_r4 0.0
SL8_r4 -0.0
y36_r4 0.0
y37_r4 0.0
y38_r4 0.0
y39_r4 0.0
SH9_r4 -0.0
SL9_r4 -0.0
y40_r4 -2.6854483106621823e-17
y41_r4 2.11647391964515e-15
y42_r4 -0.0
y43_r4 4.589629454492675e-16
SH10_r4 4.589629454492675e-16
SL10_r4 -0.0
y44_r4 -1.215181788795193e-16
y45_r4 -1.2549327803120414e-15
y46_r4 -0.0
y47_r4 -0.0
SH11_r4 -5.044495452950125e-16
SL11_r4 -5.044495452950125e-16
y48_r4 -0.0
y49_r4 -0.0
y50_r4 -0.0
y51_r4 -0.0
SH12_r4 -0.0
SL12_r4 -0.0
y52_r4 0.0
y53_r4 -0.0
y54_r4 -0.0
y55_r4 -0.0
SH13_r4 -0.0
SL13_r4 -0.0
y56_r4 1.3229800985720017e-17
y57_r4 7.325189102854064e-16
y58_r4 0.0
y59_r4 -0.0
SH14_r4 -1.669400791392923e-16
SL14_r4 -0.0
y60_r4 7.824522436798763e-17
y61_r4 1.2208677621514336e-16
y62_r4 -0.0
y63_r4 -0.0
SH15_r4 5.008321190401956e-17
SL15_r4 5.702210249920434e-17
y0_r5 -8.373571054365379e-16
y1_r5 -1.3098364868592787e-17
y2_r5 -0.0
y3_r5 0.0
SH0_r5 -4.628464345549072e-16
SL0_r5 -0.0
y4_r5 -1.4409818201709947e-15
y5_r5 1.0
y6_r5 -0.0
y7_r5 3.739110213926065e-15
SH1_r5 1.0
SL1_r5 -0.0
y8_r5 -1.4143367047492162e-16
y9_r5 -9.455236884297642e-17
y10_r5 -0.0
y11_r5 -0.0
SH2_r5 -9.029589593412556e-17
SL2_r5 -2.5711412144302144e-18
y12_r5 1.3229800985720017e-17
y13_r5 -1.4776592567891773e-16
y14_r5 -0.0
y15_r5 -0.0
SH3_r5 1.3229800985720017e-17
SL3_r5 3.434027905304706e-18
y16_r5 -0.0
y17_r5 7.713346715493676e-16
y18_r5 7.158269084498988e-16
y19_r5 -0.0
SH4_r5 7.713346715493676e-16
SL4_r5 4.404495622152701e-16
y20_r5 -0.0
y21_r5 1.931854089066011e-15
y22_r5 -1.1102230246251565e-16
y23_r5 -0.0
SH5_r5 -1.1102230246251565e-16
SL5_r5 -4.264166085594305e-15
y24_r5 -0.0
y25_r5 8.268422758301588e-16
y26_r5 7.713346715493676e-16
y27_r5 0.0
SH6_r5 7.158269084498988e-16
SL6_r5 2.0123909279855705e-15
y28_r5 -0.0
y29_r5 5.271645601904291e-16
y30_r5 7.713381126207158e-16
y31_r5 0.0
SH7_r5 7.713380596811566e-16
SL7_r5 5.271645601904291e-16
y32_r5 -0.0
y33_r5 0.0
y34_r5 0.0
y35_r5 -0.0
SH8_r5 0.0
SL8_r5 0.0
y36_r5 -1.4904762052103297e-15
y37_r5 -0.0
y38_r5 2.5501762821003885e-15
y39_r5 0.0
SH9_r5 2.5501762821003885e-15
SL9_r5 -0.0
y40_r5 -0.0
y41_r5 0.0
y42_r5 0.0
y43_r5 -0.0
SH10_r5 -0.0
SL10_r5 -0.0
y44_r5 0.0
y45_r5 0.0
y46_r5 0.0
y47_r5 -0.0
SH11_r5 0.0
SL11_r5 0.0
y48_r5 -0.0
y49_r5 0.0
y50_r5 -0.0
y51_r5 -0.0
SH12_r5 -0.0
SL12_r5 -0.0
y52_r5 -2.3214907271106467e-16
y53_r5 1.0000000000000002
y54_r5 0.0
y55_r5 -0.0
SH13_r5 1.0
SL13_r5 -0.0
y56_r5 6.435957371214249e-16
y57_r5 -0.0
y58_r5 -0.0
y59_r5 -0.0
SH14_r5 1.749623761592133e-16
SL14_r5 -0.0
y60_r5 -0.0
y61_r5 -0.0
y62_r5 -0.0
y63_r5 -0.0
SH15_r5 -0.0
SL15_r5 -0.0
y0_r6 -0.0
y1_r6 -1.5176781124460299e-15
y2_r6 -0.0
y3_r6 -1.3655761149399995e-15
SH0_r6 -1.4409818201709947e-15
SL0_r6 9.870184395436009e-16
y4_r6 -0.0
y5_r6 0.0
y6_r6 -0.0
y7_r6 -0.0
SH1_r6 -0.0
SL1_r6 -0.0
y8_r6 -0.0
y9_r6 -1.4765984174025152e-15
y10_r6 -0.0
y11_r6 -1.3655761149399995e-15
SH2_r6 -1.4765984174025152e-15
SL2_r6 -0.0
y12_r6 -0.0
y13_r6 2.136881815315593e-16
y14_r6 -0.0
y15_r6 -7.922252965904066e-16
SH3_r6 -1.9373195956279488e-16
SL3_r6 -0.0
y16_r6 -4.671881371348663e-15
y17_r6 1.0000000000000002
y18_r6 0.0
y19_r6 1.0000000000000004
SH4_r6 1.0
SL4_r6 -0.0
y20_r6 -1.761162550634166e-16
y21_r6 -3.0691602510257948e-15
y22_r6 -0.0
y23_r6 -0.0
SH5_r6 -1.761162550634166e-16
SL5_r6 -0.0
y24_r6 0.0
y25_r6 0.0
y26_r6 -0.0
y27_r6 -0.0
SH6_r6 0.0
SL6_r6 0.0
y28_r6 -4.297994252167037e-15
y29_r6 1.0000000000000002
y30_r6 0.0
y31_r6 1.0
SH7_r6 1.0
SL7_r6 -1.1947369942519854e-16
y32_r6 -0.0
y33_r6 -0.0
y34_r6 -0.0
y35_r6 -0.0
SH8_r6 -0.0
SL8_r6 -0.0
y36_r6 -0.0
y37_r6 0.0
y38_r6 6.453644927930356e-15
y39_r6 -0.0
SH9_r6 6.120571244279231e-15
SL9_r6 5.551115123125783e-17
y40_r6 -0.0
y41_r6 2.5501830583639666e-15
y42_r6 2.5501830583639666e-15
y43_r6 -0.0
SH10_r6 2.5501830583639666e-15
SL10_r6 2.5501830583639666e-15
y44_r6 -0.0
y45_r6 0.0
y46_r6 0.0
y47_r6 -0.0
SH11_r6 -0.0
SL11_r6 0.0
y48_r6 3.739110213926065e-15
y49_r6 0.0
y50_r6 3.739110213926065e-15
y51_r6 -0.0
SH12_r6 3.739110213926065e-15
SL12_r6 3.739110213926065e-15
y52_r6 0.0
y53_r6 0.0
y54_r6 -0.0
y55_r6 -0.0
SH13_r6 0.0
SL13_r6 0.0
y56_r6 0.0
y57_r6 0.0
y58_r6 0.0
y59_r6 -0.0
SH14_r6 -0.0
SL14_r6 0.0
y60_r6 0.0
y61_r6 -0.0
y62_r6 0.0
y63_r6 -0.0
SH15_r6 -0.0
SL15_r6 -0.0
y0_r7 -0.0
y1_r7 -0.0
y2_r7 -0.0
y3_r7 -0.0
SH0_r7 -0.0
SL0_r7 -0.0
y4_r7 -0.0
y5_r7 -3.715688376505945e-15
y6_r7 -4.727392522579921e-15
y7_r7 0.0
SH1_r7 -4.727392522579921e-15
SL1_r7 -1.1616142076009695e-15
y8_r7 -0.0
y9_r7 -0.0
y10_r7 -0.0
y11_r7 -0.0
SH2_r7 -0.0
SL2_r7 -0.0
y12_r7 0.0
y13_r7 -3.715688376505945e-15
y14_r7 0.0
y15_r7 -0.0
SH3_r7 0.0
SL3_r7 0.0
y16_r7 -1.703609467664874e-15
y17_r7 -1.5176781124460299e-15
y18_r7 -0.0
y19_r7 -0.0
SH4_r7 -1.6287004149085455e-15
SL4_r7 -1.9395318339279402e-15
y20_r7 -2.541538107755391e-15
y21_r7 1.0000000000000033
y22_r7 -0.0
y23_r7 0.0
SH5_r7 1.0000000000000002
SL5_r7 -0.0
y24_r7 -2.541538107755391e-15
y25_r7 3.096651314133864e-15
y26_r7 -0.0
y27_r7 -0.0
SH6_r7 0.0
SL6_r7 -3.2163168731390605e-15
y28_r7 0.0
y29_r7 0.0
y30_r7 -0.0
y31_r7 -0.0
SH7_r7 0.0
SL7_r7 -0.0
y32_r7 -0.0
y33_r7 -0.0
y34_r7 -0.0
y35_r7 -0.0
SH8_r7 -0.0
SL8_r7 -0.0
y36_r7 -0.0
y37_r7 -0.0
y38_r7 -0.0
y39_r7 -0.0
SH9_r7 -0.0
SL9_r7 -0.0
y40_r7 7.91572607411966e-15
y41_r7 -1.0456381388255554e-14
y42_r7 -1.7682727569516554e-15
y43_r7 1.6614253104795668e-14
SH10_r7 -1.7682727569516554e-15
SL10_r7 -1.0456381388255554e-14
y44_r7 1.9528217808703602e-15
y45_r7 0.0
y46_r7 5.528864732271715e-15
y47_r7 5.528864626392596e-15
SH11_r7 5.514986838584782e-15
SL11_r7 1.838331831400904e-15
y48_r7 -0.0
y49_r7 -2.053121943239837e-15
y50_r7 -0.0
y51_r7 -0.0
SH12_r7 -1.3655761149399995e-15
SL12_r7 -6.011072343807242e-16
y52_r7 -0.0
y53_r7 0.9999999999999999
y54_r7 -1.6421597155008572e-16
y55_r7 0.0
SH13_r7 1.0
SL13_r7 -0.0
y56_r7 -0.0
y57_r7 -0.0
y58_r7 -0.0
y59_r7 -0.0
SH14_r7 -0.0
SL14_r7 -0.0
y60_r7 -0.0
y61_r7 -0.0
y62_r7 -0.0
y63_r7 -0.0
SH15_r7 -0.0
SL15_r7 -0.0
y0_r8 -0.0
y1_r8 -0.0
y2_r8 -0.0
y3_r8 -0.0
SH0_r8 0.0
SL0_r8 -0.0
y4_r8 -0.0
y5_r8 -3.096651314133864e-15
y6_r8 -0.0
y7_r8 -0.0
SH1_r8 -2.652560410217907e-15
SL1_r8 -8.51804733832437e-16
y8_r8 0.0
y9_r8 3.4462388182991078e-15
y10_r8 0.0
y11_r8 4.469488063148829e-15
SH2_r8 7.91572607411966e-15
SL2_r8 3.55726202073413e-15
y12_r8 0.0
y13_r8 0.0
y14_r8 -0.0
y15_r8 -0.0
SH3_r8 -0.0
SL3_r8 -0.0
y16_r8 -6.8833827526759706e-15
y17_r8 -0.0
y18_r8 -0.0
y19_r8 -0.0
SH4_r8 -3.826707237897112e-15
SL4_r8 -0.0
y20_r8 2.0131325648878957e-15
y21_r8 0.999999999999998
y22_r8 0.0
y23_r8 0.9999999999999984
SH5_r8 1.0
SL5_r8 2.7259006785465816e-15
y24_r8 -1.9984014443252818e-15
y25_r8 -8.548717289613705e-15
y26_r8 0.0
y27_r8 -8.382183835919932e-15
SH6_r8 -1.0484136963871183e-14
SL6_r8 1.3530843112619095e-16
y28_r8 2.6645352591003757e-15
y29_r8 0.9999999999999999
y30_r8 -0.0
y31_r8 1.0
SH7_r8 0.9999999999999999
SL7_r8 -0.0
y32_r8 -2.79417873387533e-15
y33_r8 -4.727392522579921e-15
y34_r8 0.0
y35_r8 -7.270795293959353e-16
SH8_r8 -4.727392522579921e-15
SL8_r8 -4.6432584339950456e-15
y36_r8 -0.0
y37_r8 0.0
y38_r8 0.0
y39_r8 -0.0
SH9_r8 0.0
SL9_r8 -0.0
y40_r8 -1.187526639523373e-15
y41_r8 1.6739539442089946e-15
y42_r8 -0.0
y43_r8 -6.993239537803064e-16
SH10_r8 1.6739539442089946e-15
SL10_r8 -6.508092946933691e-16
y44_r8 -6.759255156453536e-16
y45_r8 -6.759255156453536e-16
y46_r8 -0.0
y47_r8 -8.329925291206131e-16
SH11_r8 -6.759255156453536e-16
SL11_r8 -0.0
y48_r8 0.0
y49_r8 0.0
y50_r8 0.0
y51_r8 0.0
SH12_r8 0.0
SL12_r8 -0.0
y52_r8 -0.0
y53_r8 0.0
y54_r8 0.0
y55_r8 -0.0
SH13_r8 0.0
SL13_r8 -0.0
y56_r8 5.542687251179721e-15
y57_r8 1.1029918831786229e-14
y58_r8 5.542687251179721e-15
y59_r8 0.0
SH14_r8 1.658649752918004e-14
SL14_r8 1.1085388478403071e-14
y60_r8 0.0
y61_r8 0.0
y62_r8 -0.0
y63_r8 -0.0
SH15_r8 -0.0
SL15_r8 -0.0
y0_r9 -0.0
y1_r9 0.0
y2_r9 -0.0
y3_r9 -0.0
SH0_r9 0.0
SL0_r9 -0.0
y4_r9 -0.0
y5_r9 6.217248937900877e-15
y6_r9 -0.0
y7_r9 2.0539125955565396e-15
SH1_r9 2.0131325648878957e-15
SL1_r9 -0.0
y8_r9 -2.532865681515589e-16
y9_r9 -1.1216206999634104e-15
y10_r9 -7.26232496448681e-16
y11_r9 -1.880819718719229e-15
SH2_r9 -2.79417873387533e-15
SL2_r9 -0.0
y12_r9 -0.0
y13_r9 5.6120695198343335e-15
y14_r9 0.0
y15_r9 5.542687251179721e-15
SH3_r9 5.542687251179721e-15
SL3_r9 -0.0
y16_r9 -0.0
y17_r9 3.39072766706785e-15
y18_r9 -3.013382866751303e-15
y19_r9 3.4462388182991078e-15
SH4_r9 3.418483242683479e-15
SL4_r9 -0.0
y20_r9 -0.0
y21_r9 1.0
y22_r9 -0.0
y23_r9 -0.0
SH5_r9 1.0
SL5_r9 1.0
y24_r9 -4.2288221535624615e-14
y25_r9 -4.4456625880595624e-14
y26_r9 -0.0
y27_r9 -4.423458127567059e-14
SH6_r9 -4.4456625880595624e-14
SL6_r9 -3.4954678040932663e-15
y28_r9 -0.0
y29_r9 1.1168736520412894e-14
y30_r9 -0.0
y31_r9 1.1029932596071622e-14
SH7_r9 1.1029932384313385e-14
SL7_r9 -0.0
y32_r9 -0.0
y33_r9 0.0
y34_r9 -0.0
y35_r9 -0.0
SH8_r9 -0.0
SL8_r9 -0.0
y36_r9 -0.0
y37_r9 0.0
y38_r9 -0.0
y39_r9 -0.0
SH9_r9 0.0
SL9_r9 -0.0
y40_r9 0.0
y41_r9 -0.0
y42_r9 -0.0
y43_r9 0.0
SH10_r9 0.0
SL10_r9 -0.0
y44_r9 4.153542523891709e-15
y45_r9 4.195175993194271e-15
y46_r9 -0.0
y47_r9 -0.0
SH11_r9 5.542687251179721e-15
SL11_r9 5.556565038987535e-15
y48_r9 -0.0
y49_r9 4.5527564840616106e-15
y50_r9 -0.0
y51_r9 4.469488063148829e-15
SH12_r9 4.469488063148829e-15
SL12_r9 0.0
y52_r9 1.0000000000000084
y53_r9 1.0
y54_r9 -0.0
y55_r9 -0.0
SH13_r9 1.0
SL13_r9 -0.0
y56_r9 -8.829403679543046e-16
y57_r9 2.514468125901226e-16
y58_r9 1.458184159357223e-16
y59_r9 -0.0
SH14_r9 -6.715683781646775e-16
SL14_r9 -0.0
y60_r9 -0.0
y61_r9 0.0
y62_r9 0.0
y63_r9 -0.0
SH15_r9 -0.0
SL15_r9 -0.0
